40
    75    33    77    73    71    24    90    94    44    57    11    67    77    27    27   100    83    81     1     5     3    20    75    97     4    98    70    92    84    20    83    12    67    48    90    80     5    94    47    24
     8     2     8     1     7     6     8     5     3     7    10     6     7     3     5     7     7     9     9     2     3     6     9     6    10    10     6     5     2     5     7     6     3     8     9     7     4     5     4     6
  1472  1343  1218  1338  1495  1463  1444  1249  1121  1325  1366  1368  1186  1545  1396  1517  1141  1538  1405  1508  1238  1175  1238  1351  1376  1324  1450  1237  1504  1498  1148  1307  1353  1291  1404  1188  1292  1140  1315  1540
